networks/zoo_102_2550/zoo_102_2550-lower.txt
Number of groups: 55
Flow 170: {19 20 0} {20 21 1} {21 72 2} 
Flow 180: {31 82 0} 
Flow 207: {5 8 0} 
Flow 224: {6 7 0} {7 15 1} {15 24 2} {24 25 3} {25 76 4} 
Flow 356: {8 5 0} {5 6 1} {6 57 2} 
Flow 357: {8 7 0} {7 58 1} 
Flow 403: {7 2 0} {2 1 1} {1 4 2} {4 3 3} {3 54 4} 
Flow 405: {9 6 0} {6 5 1} {5 56 2} 
Flow 461: {25 13 0} {13 12 1} {12 63 2} 
Flow 466: {10 18 0} {18 17 1} {17 68 2} 
Flow 538: {11 30 0} {30 33 1} {33 39 2} {39 90 3} 
Flow 591: {3 42 0} {42 93 1} 
Flow 626: {13 25 0} {25 24 1} {24 27 2} {27 78 3} 
Flow 740: {39 40 0} {40 41 1} {41 92 2} 
Flow 768: {16 15 0} {15 19 1} {19 70 2} 
Flow 802: {37 1 0} {1 2 1} {2 53 2} 
Flow 823: {17 14 0} {14 27 1} {27 24 2} {24 75 3} 
Flow 885: {18 10 0} {10 1 1} {1 36 2} {36 87 3} 
Flow 963: {21 12 0} {12 13 1} {13 64 2} 
Flow 1015: {20 19 0} {19 15 1} {15 66 2} 
Flow 1061: {23 11 0} {11 62 1} 
Flow 1072: {22 23 0} {23 74 1} 
Flow 1075: {28 29 0} {29 26 1} 
Flow 1218: {15 16 0} {16 17 1} {17 18 2} {18 69 3} 
Flow 1220: {12 21 0} {21 20 1} {20 71 2} 
Flow 1233: {24 32 0} {32 34 1} {34 85 2} 
Flow 1251: {26 27 0} {27 14 1} {14 34 2} {34 1 3} {1 52 4} 
Flow 1279: {26 29 0} {29 28 1} {28 31 2} {31 30 3} {30 81 4} 
Flow 1358: {29 24 0} {24 15 1} {15 7 2} {7 8 3} {8 59 4} 
Flow 1543: {38 46 0} {46 45 1} {45 44 2} {44 95 3} 
Flow 1710: {35 36 0} {36 1 1} {1 10 2} {10 61 3} 
Flow 1736: {14 17 0} {17 37 1} {37 88 2} 
Flow 1764: {36 35 0} {35 14 1} {14 65 2} 
Flow 1779: {32 24 0} {24 29 1} {29 80 2} 
Flow 1922: {30 11 0} {11 23 1} {23 22 2} {22 73 3} 
Flow 1995: {40 49 0} {49 48 1} {48 47 2} {47 46 3} {46 97 4} 
Flow 2033: {41 40 0} {40 39 1} {39 33 2} {33 84 3} 
Flow 2044: {50 44 0} {44 45 1} {45 96 2} 
Flow 2076: {27 26 0} {26 77 1} 
Flow 2092: {42 3 0} {3 43 1} {43 94 2} 
Flow 2100: {42 51 0} {51 102 1} 
Flow 2116: {1 37 0} {37 17 1} {17 16 2} {16 67 3} 
Flow 2147: {4 1 0} {1 34 1} {34 33 2} {33 48 3} {48 99 4} 
Flow 2150: {43 3 0} {3 51 1} 
Flow 2185: {34 14 0} {14 35 1} {35 86 2} 
Flow 2240: {44 50 0} {50 49 1} {49 40 2} {40 91 3} 
Flow 2246: {45 46 0} {46 47 1} {47 98 2} 
Flow 2278: {46 38 0} {38 30 1} {30 31 2} {31 28 3} {28 79 4} 
Flow 2298: {47 48 0} {48 49 1} {49 100 2} 
Flow 2388: {48 33 0} {33 30 1} {30 38 2} {38 89 3} 
Flow 2459: {2 7 0} {7 6 1} {6 9 2} {9 60 3} 
Flow 2482: {33 34 0} {34 32 1} {32 83 2} 
Flow 2504: {51 3 0} {3 4 1} {4 55 2} 
Flow 2542: {51 42 0} 
Flow 2550: {49 50 0} {50 101 1} 
Time taken running everything: 11 seconds
