networks/zoo_102_2550/zoo_102_2550-lower.sol
<?xml version = "1.0" encoding="UTF-8" standalone="yes"?>
<CPLEXSolution version="1.2">
 <header
   problemName="networks/zoo_102_2550/zoo_102_2550-lower.lp"
   solutionName="incumbent"
   solutionIndex="-1"
   objectiveValue="51"
   solutionTypeValue="3"
   solutionTypeString="primal"
   solutionStatusValue="101"
   solutionStatusString="integer optimal solution"
   solutionMethodString="mip"
   primalFeasible="1"
   dualFeasible="1"
   MIPNodes="0"
   MIPIterations="0"
   writeLevel="3"/>
 <quality
   epInt="1.0000000000000001e-05"
   epRHS="9.9999999999999995e-07"
   maxIntInfeas="0"
   maxPrimalInfeas="0"
   maxX="1"
   maxSlack="1"/>
 <variables>
  <variable name="Y(1,2)" index="1" value="1"/>
  <variable name="Y(2,3)" index="104" value="1"/>
  <variable name="Y(3,4)" index="207" value="1"/>
  <variable name="Y(4,5)" index="310" value="1"/>
  <variable name="Y(5,6)" index="413" value="1"/>
  <variable name="Y(6,7)" index="516" value="1"/>
  <variable name="Y(7,8)" index="619" value="1"/>
  <variable name="Y(8,9)" index="722" value="1"/>
  <variable name="Y(9,10)" index="825" value="1"/>
  <variable name="Y(10,11)" index="928" value="1"/>
  <variable name="Y(11,12)" index="1031" value="1"/>
  <variable name="Y(12,13)" index="1134" value="1"/>
  <variable name="Y(13,14)" index="1237" value="1"/>
  <variable name="Y(14,15)" index="1340" value="1"/>
  <variable name="Y(15,16)" index="1443" value="1"/>
  <variable name="Y(16,17)" index="1546" value="1"/>
  <variable name="Y(17,18)" index="1649" value="1"/>
  <variable name="Y(18,19)" index="1752" value="1"/>
  <variable name="Y(19,20)" index="1855" value="1"/>
  <variable name="Y(20,21)" index="1958" value="1"/>
  <variable name="Y(21,22)" index="2061" value="1"/>
  <variable name="Y(22,23)" index="2164" value="1"/>
  <variable name="Y(23,24)" index="2267" value="1"/>
  <variable name="Y(24,25)" index="2370" value="1"/>
  <variable name="Y(25,26)" index="2473" value="1"/>
  <variable name="Y(26,27)" index="2576" value="1"/>
  <variable name="Y(27,28)" index="2679" value="1"/>
  <variable name="Y(28,29)" index="2782" value="1"/>
  <variable name="Y(29,30)" index="2885" value="1"/>
  <variable name="Y(30,31)" index="2988" value="1"/>
  <variable name="Y(31,32)" index="3091" value="1"/>
  <variable name="Y(32,33)" index="3194" value="1"/>
  <variable name="Y(33,34)" index="3297" value="1"/>
  <variable name="Y(34,35)" index="3400" value="1"/>
  <variable name="Y(35,36)" index="3503" value="1"/>
  <variable name="Y(36,37)" index="3606" value="1"/>
  <variable name="Y(37,38)" index="3709" value="1"/>
  <variable name="Y(38,39)" index="3812" value="1"/>
  <variable name="Y(39,40)" index="3915" value="1"/>
  <variable name="Y(40,41)" index="4018" value="1"/>
  <variable name="Y(41,42)" index="4121" value="1"/>
  <variable name="Y(42,43)" index="4224" value="1"/>
  <variable name="Y(43,44)" index="4327" value="1"/>
  <variable name="Y(44,45)" index="4430" value="1"/>
  <variable name="Y(45,46)" index="4533" value="1"/>
  <variable name="Y(46,47)" index="4636" value="1"/>
  <variable name="Y(47,48)" index="4739" value="1"/>
  <variable name="Y(48,49)" index="4842" value="1"/>
  <variable name="Y(49,50)" index="4945" value="1"/>
  <variable name="Y(50,51)" index="5048" value="1"/>
  <variable name="Y(51,1)" index="5100" value="1"/>
  <variable name="X(1,2,1)" index="260100" value="1"/>
  <variable name="X(1,4,2)" index="262651" value="1"/>
  <variable name="X(1,10,9)" index="265208" value="1"/>
  <variable name="X(1,34,10)" index="267759" value="1"/>
  <variable name="X(1,36,34)" index="270333" value="1"/>
  <variable name="X(1,37,15)" index="272864" value="1"/>
  <variable name="X(1,52,51)" index="275450" value="1"/>
  <variable name="X(2,1,51)" index="278000" value="1"/>
  <variable name="X(2,7,4)" index="280503" value="1"/>
  <variable name="X(2,53,1)" index="283050" value="1"/>
  <variable name="X(3,4,101)" index="285700" value="1"/>
  <variable name="X(3,42,41)" index="288190" value="1"/>
  <variable name="X(3,43,42)" index="290741" value="1"/>
  <variable name="X(3,51,50)" index="293299" value="1"/>
  <variable name="X(3,54,2)" index="295801" value="1"/>
  <variable name="X(4,1,101)" index="298450" value="1"/>
  <variable name="X(4,3,2)" index="300901" value="1"/>
  <variable name="X(4,55,3)" index="303452" value="1"/>
  <variable name="X(5,6,201)" index="306200" value="1"/>
  <variable name="X(5,8,207)" index="308756" value="1"/>
  <variable name="X(5,56,4)" index="311103" value="1"/>
  <variable name="X(6,5,4)" index="313653" value="1"/>
  <variable name="X(6,7,201)" index="316400" value="1"/>
  <variable name="X(6,9,8)" index="318757" value="1"/>
  <variable name="X(6,57,5)" index="321304" value="1"/>
  <variable name="X(7,2,201)" index="324050" value="1"/>
  <variable name="X(7,6,4)" index="326403" value="1"/>
  <variable name="X(7,8,7)" index="328956" value="1"/>
  <variable name="X(7,15,14)" index="331513" value="1"/>
  <variable name="X(7,58,6)" index="334055" value="1"/>
  <variable name="X(8,5,355)" index="336954" value="1"/>
  <variable name="X(8,7,351)" index="339500" value="1"/>
  <variable name="X(8,59,7)" index="341706" value="1"/>
  <variable name="X(9,6,401)" index="344650" value="1"/>
  <variable name="X(9,60,8)" index="346807" value="1"/>
  <variable name="X(10,1,451)" index="349800" value="1"/>
  <variable name="X(10,18,17)" index="351916" value="1"/>
  <variable name="X(10,61,9)" index="354458" value="1"/>
  <variable name="X(11,23,21)" index="357020" value="1"/>
  <variable name="X(11,30,501)" index="360050" value="1"/>
  <variable name="X(11,62,10)" index="362109" value="1"/>
  <variable name="X(12,13,551)" index="365200" value="1"/>
  <variable name="X(12,21,552)" index="367751" value="1"/>
  <variable name="X(12,63,11)" index="369760" value="1"/>
  <variable name="X(13,12,11)" index="372310" value="1"/>
  <variable name="X(13,25,551)" index="375400" value="1"/>
  <variable name="X(13,64,12)" index="377411" value="1"/>
  <variable name="X(14,17,515)" index="380464" value="1"/>
  <variable name="X(14,27,25)" index="382524" value="1"/>
  <variable name="X(14,34,651)" index="385700" value="1"/>
  <variable name="X(14,35,534)" index="388133" value="1"/>
  <variable name="X(14,65,13)" index="390162" value="1"/>
  <variable name="X(15,7,552)" index="393251" value="1"/>
  <variable name="X(15,16,65)" index="395314" value="1"/>
  <variable name="X(15,19,18)" index="397817" value="1"/>
  <variable name="X(15,24,62)" index="400411" value="1"/>
  <variable name="X(15,66,14)" index="402913" value="1"/>
  <variable name="X(16,15,655)" index="406104" value="1"/>
  <variable name="X(16,17,216)" index="408215" value="1"/>
  <variable name="X(16,67,15)" index="410564" value="1"/>
  <variable name="X(17,14,714)" index="413813" value="1"/>
  <variable name="X(17,16,15)" index="415664" value="1"/>
  <variable name="X(17,18,567)" index="418766" value="1"/>
  <variable name="X(17,37,586)" index="421335" value="1"/>
  <variable name="X(17,68,16)" index="423315" value="1"/>
  <variable name="X(18,10,660)" index="426509" value="1"/>
  <variable name="X(18,17,465)" index="428864" value="1"/>
  <variable name="X(18,69,17)" index="430966" value="1"/>
  <variable name="X(19,15,552)" index="434051" value="1"/>
  <variable name="X(19,20,19)" index="436068" value="1"/>
  <variable name="X(19,70,18)" index="438617" value="1"/>
  <variable name="X(20,19,552)" index="441701" value="1"/>
  <variable name="X(20,21,20)" index="443719" value="1"/>
  <variable name="X(20,71,19)" index="446268" value="1"/>
  <variable name="X(21,12,61)" index="448860" value="1"/>
  <variable name="X(21,20,552)" index="451901" value="1"/>
  <variable name="X(21,72,20)" index="453919" value="1"/>
  <variable name="X(22,23,1051)" index="457500" value="1"/>
  <variable name="X(22,73,21)" index="459020" value="1"/>
  <variable name="X(23,11,1051)" index="462600" value="1"/>
  <variable name="X(23,22,21)" index="464120" value="1"/>
  <variable name="X(23,74,22)" index="466671" value="1"/>
  <variable name="X(24,15,514)" index="469713" value="1"/>
  <variable name="X(24,25,11)" index="471760" value="1"/>
  <variable name="X(24,27,225)" index="474524" value="1"/>
  <variable name="X(24,29,27)" index="476876" value="1"/>
  <variable name="X(24,32,231)" index="479630" value="1"/>
  <variable name="X(24,75,23)" index="481972" value="1"/>
  <variable name="X(25,13,11)" index="484510" value="1"/>
  <variable name="X(25,24,551)" index="487600" value="1"/>
  <variable name="X(25,76,24)" index="489623" value="1"/>
  <variable name="X(26,27,1251)" index="493400" value="1"/>
  <variable name="X(26,29,1261)" index="495960" value="1"/>
  <variable name="X(26,77,25)" index="497274" value="1"/>
  <variable name="X(27,14,563)" index="500362" value="1"/>
  <variable name="X(27,24,662)" index="503011" value="1"/>
  <variable name="X(27,26,25)" index="504924" value="1"/>
  <variable name="X(27,78,26)" index="507475" value="1"/>
  <variable name="X(28,29,525)" index="510524" value="1"/>
  <variable name="X(28,31,230)" index="512779" value="1"/>
  <variable name="X(28,79,27)" index="515126" value="1"/>
  <variable name="X(29,24,1351)" index="519000" value="1"/>
  <variable name="X(29,26,525)" index="520724" value="1"/>
  <variable name="X(29,28,27)" index="522776" value="1"/>
  <variable name="X(29,80,28)" index="525327" value="1"/>
  <variable name="X(30,11,10)" index="527859" value="1"/>
  <variable name="X(30,31,30)" index="530429" value="1"/>
  <variable name="X(30,33,501)" index="533450" value="1"/>
  <variable name="X(30,38,37)" index="535536" value="1"/>
  <variable name="X(30,81,29)" index="538078" value="1"/>
  <variable name="X(31,28,525)" index="541124" value="1"/>
  <variable name="X(31,30,561)" index="543710" value="1"/>
  <variable name="X(31,82,30)" index="545729" value="1"/>
  <variable name="X(32,24,11)" index="548260" value="1"/>
  <variable name="X(32,34,551)" index="551350" value="1"/>
  <variable name="X(32,83,31)" index="553380" value="1"/>
  <variable name="X(33,30,10)" index="555909" value="1"/>
  <variable name="X(33,34,502)" index="558951" value="1"/>
  <variable name="X(33,39,38)" index="561037" value="1"/>
  <variable name="X(33,48,43)" index="563592" value="1"/>
  <variable name="X(33,84,32)" index="566131" value="1"/>
  <variable name="X(34,1,501)" index="569150" value="1"/>
  <variable name="X(34,14,13)" index="571212" value="1"/>
  <variable name="X(34,32,11)" index="573760" value="1"/>
  <variable name="X(34,33,10)" index="576309" value="1"/>
  <variable name="X(34,85,33)" index="578882" value="1"/>
  <variable name="X(35,14,1711)" index="583110" value="1"/>
  <variable name="X(35,36,585)" index="584534" value="1"/>
  <variable name="X(35,86,34)" index="586533" value="1"/>
  <variable name="X(36,1,1701)" index="590750" value="1"/>
  <variable name="X(36,35,34)" index="591633" value="1"/>
  <variable name="X(36,87,35)" index="594184" value="1"/>
  <variable name="X(37,1,751)" index="597450" value="1"/>
  <variable name="X(37,17,15)" index="599264" value="1"/>
  <variable name="X(37,88,36)" index="601835" value="1"/>
  <variable name="X(38,30,1851)" index="606200" value="1"/>
  <variable name="X(38,46,44)" index="606943" value="1"/>
  <variable name="X(38,89,37)" index="609486" value="1"/>
  <variable name="X(39,33,1901)" index="613900" value="1"/>
  <variable name="X(39,40,39)" index="614588" value="1"/>
  <variable name="X(39,90,38)" index="617137" value="1"/>
  <variable name="X(40,39,1951)" index="621600" value="1"/>
  <variable name="X(40,41,40)" index="622239" value="1"/>
  <variable name="X(40,49,1943)" index="626692" value="1"/>
  <variable name="X(40,91,39)" index="627338" value="1"/>
  <variable name="X(41,40,2001)" index="631850" value="1"/>
  <variable name="X(41,92,40)" index="632439" value="1"/>
  <variable name="X(42,3,2051)" index="637000" value="1"/>
  <variable name="X(42,51,2100)" index="639599" value="1"/>
  <variable name="X(42,93,41)" index="640090" value="1"/>
  <variable name="X(43,3,2101)" index="644700" value="1"/>
  <variable name="X(43,94,42)" index="645191" value="1"/>
  <variable name="X(44,45,1994)" index="649693" value="1"/>
  <variable name="X(44,50,1899)" index="652148" value="1"/>
  <variable name="X(44,95,43)" index="652842" value="1"/>
  <variable name="X(45,44,543)" index="655892" value="1"/>
  <variable name="X(45,46,2161)" index="660060" value="1"/>
  <variable name="X(45,96,44)" index="660493" value="1"/>
  <variable name="X(46,38,2161)" index="665160" value="1"/>
  <variable name="X(46,45,44)" index="665593" value="1"/>
  <variable name="X(46,47,1896)" index="669995" value="1"/>
  <variable name="X(46,97,45)" index="670694" value="1"/>
  <variable name="X(47,46,1995)" index="675194" value="1"/>
  <variable name="X(47,48,2247)" index="677996" value="1"/>
  <variable name="X(47,98,46)" index="678345" value="1"/>
  <variable name="X(48,33,2151)" index="683000" value="1"/>
  <variable name="X(48,47,46)" index="683445" value="1"/>
  <variable name="X(48,49,43)" index="685992" value="1"/>
  <variable name="X(48,99,47)" index="688546" value="1"/>
  <variable name="X(49,40,2189)" index="693238" value="1"/>
  <variable name="X(49,48,1995)" index="695594" value="1"/>
  <variable name="X(49,50,43)" index="696192" value="1"/>
  <variable name="X(49,100,48)" index="698747" value="1"/>
  <variable name="X(50,44,43)" index="701292" value="1"/>
  <variable name="X(50,49,2151)" index="705950" value="1"/>
  <variable name="X(50,101,49)" index="706398" value="1"/>
  <variable name="X(51,3,2501)" index="711400" value="1"/>
  <variable name="X(51,42,2542)" index="713991" value="1"/>
  <variable name="X(51,102,50)" index="714049" value="1"/>
 </variables>
</CPLEXSolution>
